0 1 1 1 1 1 0 0 1 1 
0 39 3 27 2 21 11 12 3 20 
39 0 31 40 30 29 32 41 38 36 
3 31 0 13 44 4 12 7 22 30 
27 40 13 0 37 32 12 14 20 20 
2 30 44 37 0 19 9 44 11 29 
21 29 4 32 19 0 32 19 18 7 
11 32 12 12 9 32 0 17 30 40 
12 41 7 14 44 19 17 0 17 9 
3 38 22 20 11 18 30 17 0 27 
20 36 30 20 29 7 40 9 27 0 
9 29
1B 3P 4P 8B 10P 6P 2P 7B 5P 9P = 130